2000, 3999997000
4002001, 972
4002002, 379
4002003, 7
4002004, 589
4002005, 854
4002006, 625
4002007, 627
4002008, 669
4002009, 921
4002010, 445
4002011, 989
4002012, 181
4002013, 91
4002014, 923
4002015, 965
4002016, 795
4002017, 551
4002018, 996
4002019, 853
4002020, 56
4002021, 149
4002022, 56
4002023, 321
4002024, 446
4002025, 53
4002026, 964
4002027, 24
4002028, 474
4002029, 613
4002030, 125
4002031, 264
4002032, 971
4002033, 766
4002034, 515
4002035, 277
4002036, 576
4002037, 826
4002038, 335
4002039, 346
4002040, 286
4002041, 368
4002042, 972
4002043, 77
4002044, 120
4002045, 366
4002046, 833
4002047, 487
4002048, 556
4002049, 893
4002050, 476
4002051, 954
4002052, 780
4002053, 473
4002054, 528
4002055, 865
4002056, 898
4002057, 998
4002058, 760
4002059, 562
4002060, 290
4002061, 859
4002062, 505
4002063, 831
4002064, 131
4002065, 418
4002066, 547
4002067, 608
4002068, 886
4002069, 918
4002070, 968
4002071, 530
4002072, 765
4002073, 171
4002074, 963
4002075, 922
4002076, 300
4002077, 288
4002078, 586
4002079, 394
4002080, 27
4002081, 352
4002082, 260
4002083, 459
4002084, 274
4002085, 284
4002086, 876
4002087, 305
4002088, 691
4002089, 106
4002090, 627
4002091, 138
4002092, 252
4002093, 769
4002094, 825
4002095, 422
4002096, 369
4002097, 738
4002098, 492
4002099, 720
4002100, 469
4002101, 280
4002102, 718
4002103, 466
4002104, 146
4002105, 880
4002106, 907
4002107, 61
4002108, 275
4002109, 305
4002110, 408
4002111, 350
4002112, 121
4002113, 109
4002114, 677
4002115, 689
4002116, 883
4002117, 710
4002118, 875
4002119, 98
4002120, 59
4002121, 985
4002122, 143
4002123, 335
4002124, 640
4002125, 133
4002126, 444
4002127, 263
4002128, 742
4002129, 13
4002130, 660
4002131, 253
4002132, 199
4002133, 161
4002134, 208
4002135, 836
4002136, 613
4002137, 392
4002138, 514
4002139, 908
4002140, 293
4002141, 969
4002142, 370
4002143, 323
4002144, 909
4002145, 477
4002146, 685
4002147, 157
4002148, 941
4002149, 623
4002150, 295
4002151, 925
4002152, 938
4002153, 539
4002154, 66
4002155, 16
4002156, 486
4002157, 281
4002158, 996
4002159, 672
4002160, 545
4002161, 618
4002162, 245
4002163, 863
4002164, 738
4002165, 810
4002166, 46
4002167, 463
4002168, 990
4002169, 52
4002170, 258
4002171, 168
4002172, 432
4002173, 465
4002174, 672
4002175, 130
4002176, 566
4002177, 777
4002178, 974
4002179, 62
4002180, 938
4002181, 887
4002182, 791
4002183, 728
4002184, 102
4002185, 344
4002186, 814
4002187, 191
4002188, 926
4002189, 636
4002190, 8
4002191, 179
4002192, 233
4002193, 187
4002194, 742
4002195, 174
4002196, 104
4002197, 953
4002198, 824
4002199, 571
4002200, 165
4002201, 595
4002202, 706
4002203, 690
4002204, 821
4002205, 327
4002206, 610
4002207, 945
4002208, 862
4002209, 199
4002210, 79
4002211, 460
4002212, 161
4002213, 110
4002214, 531
4002215, 893
4002216, 512
4002217, 473
4002218, 66
4002219, 564
4002220, 57
4002221, 966
4002222, 496
4002223, 23
4002224, 848
4002225, 264
4002226, 230
4002227, 106
4002228, 824
4002229, 936
4002230, 382
4002231, 953
4002232, 707
4002233, 725
4002234, 826
4002235, 585
4002236, 597
4002237, 797
4002238, 624
4002239, 730
4002240, 516
4002241, 161
4002242, 824
4002243, 287
4002244, 34
4002245, 68
4002246, 747
4002247, 755
4002248, 273
4002249, 452
4002250, 526
4002251, 277
4002252, 813
4002253, 823
4002254, 709
4002255, 204
4002256, 349
4002257, 479
4002258, 751
4002259, 596
4002260, 322
4002261, 430
4002262, 336
4002263, 455
4002264, 574
4002265, 474
4002266, 962
4002267, 316
4002268, 238
4002269, 9
4002270, 962
4002271, 211
4002272, 864
4002273, 862
4002274, 561
4002275, 999
4002276, 829
4002277, 42
4002278, 240
4002279, 306
4002280, 856
4002281, 211
4002282, 242
4002283, 939
4002284, 4
4002285, 207
4002286, 541
4002287, 459
4002288, 569
4002289, 385
4002290, 169
4002291, 803
4002292, 199
4002293, 523
4002294, 222
4002295, 975
4002296, 152
4002297, 714
4002298, 498
4002299, 997
4002300, 58
4002301, 229
4002302, 89
4002303, 838
4002304, 803
4002305, 294
4002306, 378
4002307, 364
4002308, 938
4002309, 246
4002310, 456
4002311, 938
4002312, 236
4002313, 860
4002314, 542
4002315, 191
4002316, 13
4002317, 887
4002318, 161
4002319, 74
4002320, 426
4002321, 215
4002322, 426
4002323, 302
4002324, 549
4002325, 831
4002326, 497
4002327, 415
4002328, 80
4002329, 693
4002330, 122
4002331, 947
4002332, 360
4002333, 456
4002334, 523
4002335, 642
4002336, 867
4002337, 681
4002338, 924
4002339, 38
4002340, 58
4002341, 106
4002342, 765
4002343, 211
4002344, 591
4002345, 577
4002346, 290
4002347, 15
4002348, 952
4002349, 941
4002350, 898
4002351, 803
4002352, 649
4002353, 479
4002354, 179
4002355, 767
4002356, 901
4002357, 3
4002358, 856
4002359, 209
4002360, 574
4002361, 260
4002362, 611
4002363, 519
4002364, 808
4002365, 650
4002366, 778
4002367, 903
4002368, 705
4002369, 367
4002370, 733
4002371, 182
4002372, 931
4002373, 917
4002374, 117
4002375, 126
4002376, 960
4002377, 689
4002378, 535
4002379, 965
4002380, 653
4002381, 795
4002382, 687
4002383, 444
4002384, 871
4002385, 259
4002386, 637
4002387, 741
4002388, 528
4002389, 949
4002390, 2
4002391, 452
4002392, 674
4002393, 981
4002394, 507
4002395, 423
4002396, 298
4002397, 643
4002398, 317
4002399, 950
4002400, 278
4002401, 24
4002402, 231
4002403, 746
4002404, 359
4002405, 775
4002406, 386
4002407, 417
4002408, 711
4002409, 604
4002410, 643
4002411, 352
4002412, 236
4002413, 696
4002414, 192
4002415, 583
4002416, 523
4002417, 922
4002418, 550
4002419, 440
4002420, 557
4002421, 231
4002422, 905
4002423, 544
4002424, 92
4002425, 954
4002426, 196
4002427, 492
4002428, 966
4002429, 4
4002430, 428
4002431, 941
4002432, 617
4002433, 125
4002434, 880
4002435, 84
4002436, 821
4002437, 528
4002438, 667
4002439, 358
4002440, 789
4002441, 611
4002442, 832
4002443, 112
4002444, 517
4002445, 572
4002446, 669
4002447, 51
4002448, 996
4002449, 644
4002450, 992
4002451, 353
4002452, 939
4002453, 407
4002454, 684
4002455, 853
4002456, 285
4002457, 874
4002458, 53
4002459, 423
4002460, 181
4002461, 715
4002462, 951
4002463, 845
4002464, 90
4002465, 508
4002466, 66
4002467, 651
4002468, 661
4002469, 584
4002470, 976
4002471, 115
4002472, 648
4002473, 276
4002474, 69
4002475, 653
4002476, 977
4002477, 631
4002478, 910
4002479, 840
4002480, 532
4002481, 953
4002482, 522
4002483, 158
4002484, 556
4002485, 359
4002486, 987
4002487, 884
4002488, 475
4002489, 837
4002490, 286
4002491, 415
4002492, 965
4002493, 570
4002494, 918
4002495, 399
4002496, 281
4002497, 495
4002498, 364
4002499, 87
4002500, 479
4002501, 224
4002502, 434
4002503, 786
4002504, 922
4002505, 888
4002506, 778
4002507, 951
4002508, 766
4002509, 745
4002510, 395
4002511, 334
4002512, 738
4002513, 370
4002514, 436
4002515, 969
4002516, 8
4002517, 54
4002518, 815
4002519, 707
4002520, 552
4002521, 939
4002522, 319
4002523, 387
4002524, 928
4002525, 728
4002526, 217
4002527, 906
4002528, 894
4002529, 277
4002530, 246
4002531, 856
4002532, 843
4002533, 286
4002534, 895
4002535, 282
4002536, 697
4002537, 864
4002538, 919
4002539, 983
4002540, 262
4002541, 226
4002542, 948
4002543, 453
4002544, 63
4002545, 773
4002546, 54
4002547, 960
4002548, 485
4002549, 692
4002550, 310
4002551, 716
4002552, 914
4002553, 84
4002554, 160
4002555, 445
4002556, 212
4002557, 764
4002558, 57
4002559, 725
4002560, 753
4002561, 742
4002562, 528
4002563, 390
4002564, 561
4002565, 716
4002566, 144
4002567, 835
4002568, 191
4002569, 771
4002570, 924
4002571, 123
4002572, 656
4002573, 682
4002574, 770
4002575, 950
4002576, 137
4002577, 628
4002578, 200
4002579, 437
4002580, 444
4002581, 353
4002582, 114
4002583, 469
4002584, 251
4002585, 928
4002586, 497
4002587, 324
4002588, 787
4002589, 632
4002590, 748
4002591, 138
4002592, 122
4002593, 802
4002594, 603
4002595, 609
4002596, 514
4002597, 72
4002598, 54
4002599, 6
4002600, 555
4002601, 265
4002602, 842
4002603, 925
4002604, 571
4002605, 970
4002606, 268
4002607, 839
4002608, 313
4002609, 469
4002610, 315
4002611, 103
4002612, 950
4002613, 613
4002614, 977
4002615, 976
4002616, 802
4002617, 48
4002618, 2
4002619, 921
4002620, 332
4002621, 419
4002622, 348
4002623, 824
4002624, 994
4002625, 337
4002626, 765
4002627, 242
4002628, 692
4002629, 844
4002630, 360
4002631, 769
4002632, 781
4002633, 530
4002634, 95
4002635, 692
4002636, 130
4002637, 929
4002638, 209
4002639, 874
4002640, 56
4002641, 954
4002642, 405
4002643, 486
4002644, 817
4002645, 369
4002646, 293
4002647, 772
4002648, 71
4002649, 762
4002650, 252
4002651, 26
4002652, 703
4002653, 78
4002654, 616
4002655, 792
4002656, 120
4002657, 459
4002658, 456
4002659, 463
4002660, 25
4002661, 783
4002662, 350
4002663, 293
4002664, 981
4002665, 94
4002666, 917
4002667, 911
4002668, 498
4002669, 102
4002670, 787
4002671, 630
4002672, 429
4002673, 170
4002674, 392
4002675, 34
4002676, 247
4002677, 627
4002678, 885
4002679, 913
4002680, 507
4002681, 240
4002682, 150
4002683, 920
4002684, 533
4002685, 823
4002686, 480
4002687, 32
4002688, 235
4002689, 465
4002690, 874
4002691, 450
4002692, 479
4002693, 449
4002694, 648
4002695, 203
4002696, 115
4002697, 445
4002698, 875
4002699, 120
4002700, 780
4002701, 947
4002702, 593
4002703, 27
4002704, 72
4002705, 861
4002706, 419
4002707, 475
4002708, 679
4002709, 157
4002710, 361
4002711, 639
4002712, 92
4002713, 625
4002714, 727
4002715, 636
4002716, 740
4002717, 631
4002718, 876
4002719, 273
4002720, 213
4002721, 682
4002722, 45
4002723, 138
4002724, 360
4002725, 75
4002726, 134
4002727, 234
4002728, 40
4002729, 671
4002730, 72
4002731, 567
4002732, 632
4002733, 895
4002734, 99
4002735, 129
4002736, 568
4002737, 971
4002738, 838
4002739, 738
4002740, 249
4002741, 750
4002742, 729
4002743, 895
4002744, 851
4002745, 77
4002746, 393
4002747, 77
4002748, 85
4002749, 111
4002750, 980
4002751, 868
4002752, 109
4002753, 301
4002754, 608
4002755, 303
4002756, 51
4002757, 171
4002758, 312
4002759, 618
4002760, 170
4002761, 549
4002762, 614
4002763, 434
4002764, 87
4002765, 162
4002766, 570
4002767, 488
4002768, 840
4002769, 580
4002770, 993
4002771, 77
4002772, 637
4002773, 454
4002774, 573
4002775, 407
4002776, 913
4002777, 836
4002778, 851
4002779, 106
4002780, 969
4002781, 582
4002782, 928
4002783, 664
4002784, 547
4002785, 940
4002786, 651
4002787, 89
4002788, 265
4002789, 922
4002790, 350
4002791, 267
4002792, 59
4002793, 62
4002794, 925
4002795, 386
4002796, 584
4002797, 101
4002798, 308
4002799, 176
4002800, 741
4002801, 681
4002802, 324
4002803, 822
4002804, 179
4002805, 901
4002806, 550
4002807, 384
4002808, 189
4002809, 918
4002810, 230
4002811, 845
4002812, 103
4002813, 11
4002814, 225
4002815, 661
4002816, 128
4002817, 758
4002818, 326
4002819, 24
4002820, 776
4002821, 729
4002822, 865
4002823, 277
4002824, 418
4002825, 961
4002826, 739
4002827, 376
4002828, 82
4002829, 886
4002830, 450
4002831, 601
4002832, 576
4002833, 696
4002834, 679
4002835, 732
4002836, 595
4002837, 67
4002838, 34
4002839, 827
4002840, 23
4002841, 59
4002842, 528
4002843, 173
4002844, 487
4002845, 976
4002846, 821
4002847, 523
4002848, 154
4002849, 83
4002850, 26
4002851, 317
4002852, 553
4002853, 959
4002854, 895
4002855, 344
4002856, 927
4002857, 112
4002858, 193
4002859, 546
4002860, 511
4002861, 287
4002862, 37
4002863, 716
4002864, 873
4002865, 915
4002866, 594
4002867, 863
4002868, 982
4002869, 184
4002870, 91
4002871, 47
4002872, 231
4002873, 700
4002874, 866
4002875, 963
4002876, 313
4002877, 420
4002878, 926
4002879, 650
4002880, 754
4002881, 115
4002882, 949
4002883, 694
4002884, 797
4002885, 724
4002886, 514
4002887, 36
4002888, 138
4002889, 578
4002890, 992
4002891, 978
4002892, 294
4002893, 526
4002894, 572
4002895, 248
4002896, 777
4002897, 593
4002898, 78
4002899, 807
4002900, 362
4002901, 213
4002902, 1
4002903, 692
4002904, 981
4002905, 935
4002906, 701
4002907, 757
4002908, 597
4002909, 200
4002910, 443
4002911, 866
4002912, 785
4002913, 727
4002914, 513
4002915, 285
4002916, 354
4002917, 808
4002918, 217
4002919, 442
4002920, 51
4002921, 791
4002922, 134
4002923, 415
4002924, 792
4002925, 525
4002926, 31
4002927, 252
4002928, 295
4002929, 618
4002930, 714
4002931, 28
4002932, 505
4002933, 984
4002934, 49
4002935, 610
4002936, 417
4002937, 382
4002938, 416
4002939, 716
4002940, 131
4002941, 202
4002942, 900
4002943, 963
4002944, 182
4002945, 525
4002946, 852
4002947, 816
4002948, 346
4002949, 563
4002950, 820
4002951, 560
4002952, 250
4002953, 816
4002954, 741
4002955, 777
4002956, 651
4002957, 403
4002958, 838
4002959, 354
4002960, 811
4002961, 734
4002962, 29
4002963, 222
4002964, 594
4002965, 203
4002966, 182
4002967, 641
4002968, 547
4002969, 712
4002970, 898
4002971, 585
4002972, 531
4002973, 475
4002974, 177
4002975, 622
4002976, 985
4002977, 943
4002978, 240
4002979, 81
4002980, 884
4002981, 773
4002982, 267
4002983, 128
4002984, 248
4002985, 283
4002986, 308
4002987, 472
4002988, 960
4002989, 80
4002990, 105
4002991, 825
4002992, 860
4002993, 973
4002994, 17
4002995, 590
4002996, 277
4002997, 5
4002998, 319
4002999, 841
4003000, 804
4003001, 933
4003002, 957
4003003, 755
4003004, 902
4003005, 524
4003006, 554
4003007, 721
4003008, 514
4003009, 179
4003010, 876
4003011, 367
4003012, 984
4003013, 910
4003014, 998
4003015, 537
4003016, 795
4003017, 593
4003018, 523
4003019, 324
4003020, 128
4003021, 660
4003022, 728
4003023, 409
4003024, 525
4003025, 111
4003026, 29
4003027, 258
4003028, 810
4003029, 838
4003030, 588
4003031, 675
4003032, 50
4003033, 397
4003034, 480
4003035, 353
4003036, 930
4003037, 500
4003038, 559
4003039, 494
4003040, 569
4003041, 3
4003042, 72
4003043, 986
4003044, 462
4003045, 583
4003046, 45
4003047, 427
4003048, 109
4003049, 619
4003050, 826
4003051, 766
4003052, 970
4003053, 151
4003054, 99
4003055, 467
4003056, 323
4003057, 276
4003058, 769
4003059, 788
4003060, 929
4003061, 902
4003062, 6
4003063, 597
4003064, 727
4003065, 16
4003066, 27
4003067, 597
4003068, 561
4003069, 842
4003070, 545
4003071, 956
4003072, 782
4003073, 870
4003074, 221
4003075, 179
4003076, 966
4003077, 318
4003078, 817
4003079, 838
4003080, 653
4003081, 80
4003082, 457
4003083, 644
4003084, 709
4003085, 786
4003086, 491
4003087, 29
4003088, 135
4003089, 525
4003090, 422
4003091, 771
4003092, 522
4003093, 93
4003094, 939
4003095, 425
4003096, 922
4003097, 38
4003098, 703
4003099, 294
4003100, 618
4003101, 832
4003102, 470
4003103, 179
4003104, 698
4003105, 308
4003106, 209
4003107, 928
4003108, 401
4003109, 429
4003110, 16
4003111, 626
4003112, 835
4003113, 72
4003114, 896
4003115, 184
4003116, 835
4003117, 859
4003118, 830
4003119, 417
4003120, 218
4003121, 681
4003122, 410
4003123, 47
4003124, 974
4003125, 379
4003126, 317
4003127, 798
4003128, 691
4003129, 384
4003130, 330
4003131, 965
4003132, 413
4003133, 702
4003134, 784
4003135, 67
4003136, 835
4003137, 862
4003138, 453
4003139, 986
4003140, 429
4003141, 323
4003142, 604
4003143, 440
4003144, 671
4003145, 323
4003146, 384
4003147, 265
4003148, 627
4003149, 116
4003150, 206
4003151, 117
4003152, 650
4003153, 31
4003154, 703
4003155, 1
4003156, 715
4003157, 160
4003158, 211
4003159, 964
4003160, 66
4003161, 412
4003162, 206
4003163, 632
4003164, 82
4003165, 530
4003166, 846
4003167, 932
4003168, 707
4003169, 538
4003170, 546
4003171, 810
4003172, 76
4003173, 896
4003174, 596
4003175, 254
4003176, 657
4003177, 193
4003178, 536
4003179, 966
4003180, 246
4003181, 931
4003182, 634
4003183, 283
4003184, 233
4003185, 289
4003186, 155
4003187, 134
4003188, 635
4003189, 525
4003190, 220
4003191, 531
4003192, 439
4003193, 916
4003194, 633
4003195, 120
4003196, 369
4003197, 13
4003198, 280
4003199, 150
4003200, 352
4003201, 689
4003202, 759
4003203, 759
4003204, 757
4003205, 372
4003206, 144
4003207, 230
4003208, 849
4003209, 698
4003210, 927
4003211, 265
4003212, 378
4003213, 762
4003214, 978
4003215, 82
4003216, 998
4003217, 222
4003218, 176
4003219, 545
4003220, 917
4003221, 137
4003222, 234
4003223, 19
4003224, 395
4003225, 119
4003226, 21
4003227, 206
4003228, 195
4003229, 239
4003230, 870
4003231, 674
4003232, 180
4003233, 932
4003234, 867
4003235, 561
4003236, 704
4003237, 463
4003238, 160
4003239, 126
4003240, 967
4003241, 798
4003242, 407
4003243, 162
4003244, 448
4003245, 152
4003246, 134
4003247, 314
4003248, 689
4003249, 86
4003250, 653
4003251, 729
4003252, 569
4003253, 203
4003254, 341
4003255, 28
4003256, 676
4003257, 605
4003258, 777
4003259, 553
4003260, 910
4003261, 745
4003262, 496
4003263, 750
4003264, 30
4003265, 146
4003266, 184
4003267, 744
4003268, 117
4003269, 682
4003270, 980
4003271, 576
4003272, 4
4003273, 190
4003274, 687
4003275, 199
4003276, 201
4003277, 709
4003278, 238
4003279, 699
4003280, 98
4003281, 674
4003282, 794
4003283, 471
4003284, 31
4003285, 5
4003286, 707
4003287, 135
4003288, 844
4003289, 270
4003290, 229
4003291, 280
4003292, 340
4003293, 594
4003294, 686
4003295, 612
4003296, 430
4003297, 682
4003298, 501
4003299, 460
4003300, 116
4003301, 83
4003302, 349
4003303, 27
4003304, 447
4003305, 416
4003306, 887
4003307, 305
4003308, 323
4003309, 642
4003310, 675
4003311, 909
4003312, 313
4003313, 32
4003314, 879
4003315, 234
4003316, 343
4003317, 334
4003318, 317
4003319, 122
4003320, 305
4003321, 946
4003322, 513
4003323, 429
4003324, 620
4003325, 722
4003326, 249
4003327, 75
4003328, 653
4003329, 22
4003330, 299
4003331, 797
4003332, 125
4003333, 108
4003334, 369
4003335, 191
4003336, 7
4003337, 486
4003338, 599
4003339, 953
4003340, 560
4003341, 149
4003342, 51
4003343, 329
4003344, 342
4003345, 930
4003346, 572
4003347, 521
4003348, 762
4003349, 791
4003350, 732
4003351, 647
4003352, 261
4003353, 121
4003354, 502
4003355, 407
4003356, 949
4003357, 488
4003358, 591
4003359, 51
4003360, 273
4003361, 974
4003362, 920
4003363, 891
4003364, 241
4003365, 331
4003366, 610
4003367, 813
4003368, 134
4003369, 567
4003370, 256
4003371, 469
4003372, 863
4003373, 544
4003374, 88
4003375, 77
4003376, 722
4003377, 398
4003378, 498
4003379, 390
4003380, 862
4003381, 398
4003382, 998
4003383, 109
4003384, 447
4003385, 684
4003386, 218
4003387, 519
4003388, 665
4003389, 199
4003390, 66
4003391, 916
4003392, 220
4003393, 744
4003394, 493
4003395, 543
4003396, 86
4003397, 946
4003398, 230
4003399, 939
4003400, 803
4003401, 315
4003402, 128
4003403, 967
4003404, 568
4003405, 817
4003406, 65
4003407, 427
4003408, 371
4003409, 838
4003410, 431
4003411, 688
4003412, 685
4003413, 132
4003414, 829
4003415, 84
4003416, 719
4003417, 169
4003418, 703
4003419, 643
4003420, 816
4003421, 476
4003422, 337
4003423, 606
4003424, 100
4003425, 317
4003426, 43
4003427, 967
4003428, 822
4003429, 984
4003430, 207
4003431, 275
4003432, 911
4003433, 506
4003434, 705
4003435, 886
4003436, 539
4003437, 178
4003438, 886
4003439, 58
4003440, 435
4003441, 865
4003442, 53
4003443, 391
4003444, 549
4003445, 10
4003446, 448
4003447, 316
4003448, 917
4003449, 738
4003450, 491
4003451, 644
4003452, 112
4003453, 960
4003454, 732
4003455, 457
4003456, 75
4003457, 758
4003458, 881
4003459, 533
4003460, 711
4003461, 269
4003462, 44
4003463, 811
4003464, 240
4003465, 836
4003466, 978
4003467, 394
4003468, 409
4003469, 794
4003470, 55
4003471, 705
4003472, 201
4003473, 999
4003474, 555
4003475, 372
4003476, 432
4003477, 735
4003478, 535
4003479, 733
4003480, 810
4003481, 838
4003482, 952
4003483, 763
4003484, 626
4003485, 156
4003486, 435
4003487, 422
4003488, 64
4003489, 649
4003490, 838
4003491, 336
4003492, 307
4003493, 466
4003494, 821
4003495, 61
4003496, 271
4003497, 266
4003498, 586
4003499, 107
4003500, 544
4003501, 913
4003502, 564
4003503, 130
4003504, 117
4003505, 96
4003506, 624
4003507, 501
4003508, 13
4003509, 666
4003510, 546
4003511, 911
4003512, 652
4003513, 5
4003514, 701
4003515, 255
4003516, 863
4003517, 358
4003518, 534
4003519, 491
4003520, 683
4003521, 280
4003522, 244
4003523, 816
4003524, 545
4003525, 909
4003526, 914
4003527, 328
4003528, 141
4003529, 570
4003530, 635
4003531, 313
4003532, 170
4003533, 727
4003534, 637
4003535, 405
4003536, 295
4003537, 396
4003538, 934
4003539, 596
4003540, 116
4003541, 645
4003542, 298
4003543, 915
4003544, 901
4003545, 111
4003546, 762
4003547, 719
4003548, 37
4003549, 568
4003550, 813
4003551, 682
4003552, 444
4003553, 258
4003554, 923
4003555, 749
4003556, 162
4003557, 831
4003558, 444
4003559, 540
4003560, 104
4003561, 990
4003562, 365
4003563, 869
4003564, 805
4003565, 316
4003566, 202
4003567, 888
4003568, 295
4003569, 540
4003570, 485
4003571, 807
4003572, 285
4003573, 783
4003574, 941
4003575, 527
4003576, 892
4003577, 636
4003578, 47
4003579, 693
4003580, 326
4003581, 297
4003582, 681
4003583, 634
4003584, 403
4003585, 575
4003586, 697
4003587, 447
4003588, 500
4003589, 257
4003590, 705
4003591, 161
4003592, 138
4003593, 957
4003594, 30
4003595, 597
4003596, 915
4003597, 337
4003598, 812
4003599, 100
4003600, 101
4003601, 438
4003602, 27
4003603, 224
4003604, 753
4003605, 56
4003606, 485
4003607, 733
4003608, 728
4003609, 36
4003610, 100
4003611, 264
4003612, 857
4003613, 769
4003614, 952
4003615, 123
4003616, 537
4003617, 935
4003618, 215
4003619, 222
4003620, 104
4003621, 162
4003622, 91
4003623, 903
4003624, 818
4003625, 974
4003626, 863
4003627, 659
4003628, 467
4003629, 788
4003630, 825
4003631, 634
4003632, 138
4003633, 764
4003634, 937
4003635, 198
4003636, 486
4003637, 33
4003638, 296
4003639, 364
4003640, 195
4003641, 840
4003642, 50
4003643, 897
4003644, 246
4003645, 680
4003646, 436
4003647, 485
4003648, 268
4003649, 50
4003650, 277
4003651, 411
4003652, 167
4003653, 842
4003654, 105
4003655, 998
4003656, 96
4003657, 171
4003658, 425
4003659, 478
4003660, 461
4003661, 639
4003662, 267
4003663, 976
4003664, 364
4003665, 997
4003666, 56
4003667, 417
4003668, 390
4003669, 584
4003670, 688
4003671, 52
4003672, 765
4003673, 950
4003674, 583
4003675, 110
4003676, 413
4003677, 334
4003678, 652
4003679, 600
4003680, 318
4003681, 200
4003682, 836
4003683, 957
4003684, 127
4003685, 600
4003686, 698
4003687, 495
4003688, 764
4003689, 356
4003690, 626
4003691, 877
4003692, 665
4003693, 305
4003694, 537
4003695, 712
4003696, 877
4003697, 145
4003698, 734
4003699, 113
4003700, 711
4003701, 87
4003702, 300
4003703, 109
4003704, 332
4003705, 808
4003706, 965
4003707, 128
4003708, 830
4003709, 987
4003710, 184
4003711, 197
4003712, 405
4003713, 946
4003714, 851
4003715, 19
4003716, 58
4003717, 831
4003718, 168
4003719, 353
4003720, 591
4003721, 983
4003722, 428
4003723, 298
4003724, 560
4003725, 449
4003726, 683
4003727, 225
4003728, 364
4003729, 152
4003730, 557
4003731, 607
4003732, 235
4003733, 364
4003734, 564
4003735, 247
4003736, 49
4003737, 573
4003738, 187
4003739, 440
4003740, 330
4003741, 992
4003742, 576
4003743, 954
4003744, 627
4003745, 510
4003746, 410
4003747, 439
4003748, 31
4003749, 340
4003750, 18
4003751, 563
4003752, 367
4003753, 501
4003754, 518
4003755, 701
4003756, 304
4003757, 49
4003758, 641
4003759, 963
4003760, 993
4003761, 554
4003762, 564
4003763, 577
4003764, 753
4003765, 953
4003766, 208
4003767, 746
4003768, 293
4003769, 109
4003770, 921
4003771, 973
4003772, 471
4003773, 75
4003774, 268
4003775, 985
4003776, 575
4003777, 22
4003778, 113
4003779, 296
4003780, 678
4003781, 256
4003782, 977
4003783, 775
4003784, 574
4003785, 383
4003786, 240
4003787, 196
4003788, 563
4003789, 313
4003790, 979
4003791, 374
4003792, 988
4003793, 767
4003794, 387
4003795, 248
4003796, 433
4003797, 333
4003798, 896
4003799, 534
4003800, 262
4003801, 344
4003802, 87
4003803, 774
4003804, 415
4003805, 310
4003806, 556
4003807, 168
4003808, 298
4003809, 425
4003810, 368
4003811, 70
4003812, 791
4003813, 68
4003814, 683
4003815, 180
4003816, 250
4003817, 347
4003818, 210
4003819, 944
4003820, 535
4003821, 863
4003822, 74
4003823, 291
4003824, 285
4003825, 103
4003826, 410
4003827, 837
4003828, 876
4003829, 312
4003830, 205
4003831, 532
4003832, 126
4003833, 430
4003834, 981
4003835, 13
4003836, 576
4003837, 160
4003838, 705
4003839, 345
4003840, 538
4003841, 895
4003842, 895
4003843, 673
4003844, 946
4003845, 462
4003846, 234
4003847, 74
4003848, 21
4003849, 275
4003850, 604
4003851, 202
4003852, 662
4003853, 244
4003854, 268
4003855, 744
4003856, 452
4003857, 995
4003858, 673
4003859, 447
4003860, 192
4003861, 26
4003862, 789
4003863, 19
4003864, 500
4003865, 871
4003866, 19
4003867, 889
4003868, 324
4003869, 737
4003870, 489
4003871, 587
4003872, 520
4003873, 464
4003874, 550
4003875, 674
4003876, 688
4003877, 544
4003878, 44
4003879, 809
4003880, 310
4003881, 142
4003882, 6
4003883, 336
4003884, 183
4003885, 225
4003886, 171
4003887, 174
4003888, 354
4003889, 482
4003890, 505
4003891, 102
4003892, 294
4003893, 260
4003894, 594
4003895, 42
4003896, 712
4003897, 916
4003898, 690
4003899, 699
4003900, 698
4003901, 209
4003902, 78
4003903, 214
4003904, 477
4003905, 428
4003906, 6
4003907, 615
4003908, 327
4003909, 793
4003910, 867
4003911, 882
4003912, 837
4003913, 868
4003914, 465
4003915, 460
4003916, 610
4003917, 772
4003918, 806
4003919, 366
4003920, 541
4003921, 555
4003922, 360
4003923, 114
4003924, 151
4003925, 212
4003926, 379
4003927, 667
4003928, 810
4003929, 507
4003930, 528
4003931, 625
4003932, 394
4003933, 992
4003934, 695
4003935, 482
4003936, 735
4003937, 739
4003938, 101
4003939, 658
4003940, 193
4003941, 753
4003942, 830
4003943, 411
4003944, 898
4003945, 725
4003946, 924
4003947, 917
4003948, 167
4003949, 591
4003950, 565
4003951, 535
4003952, 615
4003953, 936
4003954, 224
4003955, 939
4003956, 250
4003957, 995
4003958, 512
4003959, 853
4003960, 242
4003961, 502
4003962, 431
4003963, 388
4003964, 253
4003965, 278
4003966, 139
4003967, 536
4003968, 888
4003969, 830
4003970, 645
4003971, 777
4003972, 309
4003973, 928
4003974, 333
4003975, 406
4003976, 797
4003977, 361
4003978, 454
4003979, 739
4003980, 791
4003981, 569
4003982, 296
4003983, 441
4003984, 271
4003985, 128
4003986, 920
4003987, 129
4003988, 974
4003989, 930
4003990, 673
4003991, 825
4003992, 504
4003993, 444
4003994, 918
4003995, 749
4003996, 417
4003997, 404
4003998, 813
4003999, 862
4004000, 999
